tsp_instances/TSP20/instance79.tsp
NODE_COORD_SECTION
0 5 62
1 68 44
2 108 120
3 93 106
4 99 165
5 58 185
6 184 200
7 149 171
8 43 66
9 42 156
10 161 45
11 2 165
12 134 45
13 171 189
14 61 119
15 96 187
16 145 113
17 98 38
18 89 164
19 108 14
