tsp_instances/TSP20/instance79.opt.tour
TOUR_SECTION
1
9
2
18
20
13
11
17
3
4
15
19
5
8
14
7
16
6
10
12
-1